set CIDADES := CIDADE1 CIDADE2 CIDADE3 CIDADE4;
set SUBESTACOES := SUB1 SUB2 SUB3;

param demanda :=
CIDADE1 45
CIDADE2 20
CIDADE3 30
CIDADE4 30;

param capacidade :=
SUB1 35
SUB2 50
SUB3 40;

param custo_energia:
        CIDADE1 CIDADE2 CIDADE3 CIDADE4 :=
SUB1          8       6      10       9
SUB2          9      12      13       7
SUB3         14       9      16       5 ;
